benchmarks_CP/INST_49x49/40/inst49x49_40_22.dzn
S=7;
start=[|
9,	22,	18,	-1,	-1,	30,	12,	25,	-1,	29,	20,	-1,	19,	-1,	31,	24,	-1,	26,	-1,	-1,	-1,	5,	48,	36,	1,	-1,	-1,	-1,	45,	-1,	49,	11,	35,	-1,	44,	-1,	-1,	14,	-1,	-1,	-1,	-1,	41,	-1,	-1,	39,	23,	-1,	42|
-1,	41,	-1,	-1,	17,	-1,	43,	37,	2,	-1,	-1,	-1,	-1,	-1,	34,	-1,	-1,	18,	-1,	35,	-1,	-1,	28,	39,	-1,	24,	-1,	-1,	36,	-1,	-1,	-1,	-1,	13,	-1,	-1,	-1,	-1,	-1,	-1,	-1,	1,	46,	-1,	-1,	-1,	-1,	-1,	6|
-1,	36,	49,	-1,	45,	10,	-1,	-1,	-1,	5,	23,	-1,	33,	-1,	-1,	-1,	-1,	-1,	-1,	-1,	-1,	-1,	16,	-1,	44,	19,	-1,	-1,	-1,	-1,	-1,	-1,	-1,	-1,	-1,	35,	-1,	-1,	30,	4,	-1,	-1,	-1,	-1,	-1,	28,	20,	-1,	-1|
-1,	-1,	6,	20,	21,	-1,	-1,	40,	4,	-1,	46,	11,	28,	31,	-1,	-1,	-1,	-1,	8,	-1,	-1,	-1,	15,	9,	-1,	47,	-1,	-1,	16,	-1,	-1,	-1,	-1,	-1,	-1,	-1,	-1,	-1,	29,	-1,	-1,	12,	-1,	-1,	-1,	33,	-1,	44,	14|
-1,	8,	-1,	-1,	-1,	-1,	-1,	36,	30,	-1,	-1,	49,	-1,	-1,	21,	-1,	32,	-1,	44,	10,	-1,	-1,	-1,	-1,	-1,	-1,	-1,	-1,	-1,	-1,	-1,	-1,	-1,	-1,	24,	17,	-1,	-1,	6,	-1,	7,	-1,	-1,	-1,	-1,	-1,	-1,	-1,	-1|
14,	-1,	-1,	-1,	-1,	-1,	16,	-1,	-1,	12,	38,	9,	6,	35,	-1,	13,	-1,	27,	-1,	41,	-1,	-1,	2,	-1,	-1,	-1,	-1,	-1,	8,	-1,	-1,	4,	-1,	26,	48,	32,	-1,	10,	-1,	-1,	-1,	-1,	-1,	-1,	31,	-1,	36,	43,	-1|
-1,	-1,	-1,	-1,	46,	-1,	34,	-1,	10,	15,	42,	-1,	44,	-1,	-1,	33,	-1,	7,	-1,	-1,	14,	-1,	35,	-1,	-1,	-1,	30,	-1,	-1,	-1,	19,	-1,	-1,	32,	-1,	9,	-1,	8,	-1,	28,	24,	36,	18,	1,	12,	-1,	-1,	-1,	-1|
33,	10,	-1,	26,	31,	-1,	41,	-1,	42,	-1,	6,	-1,	45,	-1,	-1,	35,	-1,	17,	-1,	21,	11,	-1,	13,	30,	14,	-1,	18,	-1,	29,	19,	39,	48,	27,	-1,	-1,	-1,	-1,	-1,	-1,	-1,	-1,	4,	7,	-1,	9,	-1,	-1,	-1,	-1|
-1,	-1,	21,	-1,	-1,	25,	2,	13,	-1,	-1,	-1,	1,	8,	37,	-1,	45,	-1,	34,	9,	-1,	-1,	-1,	47,	-1,	17,	-1,	22,	43,	-1,	16,	-1,	41,	-1,	20,	-1,	-1,	-1,	32,	-1,	12,	39,	-1,	-1,	29,	-1,	44,	-1,	5,	36|
-1,	-1,	27,	-1,	-1,	19,	-1,	32,	36,	35,	-1,	-1,	-1,	-1,	7,	8,	-1,	-1,	39,	-1,	-1,	-1,	-1,	1,	-1,	-1,	44,	-1,	33,	-1,	-1,	-1,	-1,	40,	14,	13,	46,	-1,	-1,	29,	-1,	47,	-1,	-1,	43,	-1,	-1,	45,	4|
-1,	-1,	-1,	-1,	35,	34,	-1,	38,	-1,	-1,	43,	-1,	-1,	-1,	-1,	48,	-1,	3,	-1,	-1,	-1,	39,	27,	-1,	-1,	36,	-1,	-1,	30,	-1,	17,	-1,	-1,	-1,	-1,	-1,	-1,	-1,	41,	-1,	28,	-1,	-1,	-1,	-1,	26,	-1,	25,	16|
-1,	17,	-1,	30,	48,	-1,	-1,	18,	-1,	9,	-1,	4,	-1,	25,	5,	19,	46,	29,	-1,	38,	28,	-1,	-1,	-1,	-1,	41,	-1,	-1,	-1,	-1,	35,	-1,	-1,	-1,	32,	14,	-1,	24,	-1,	-1,	27,	-1,	-1,	2,	-1,	-1,	-1,	-1,	-1|
-1,	15,	14,	-1,	-1,	-1,	-1,	-1,	5,	44,	-1,	-1,	-1,	-1,	-1,	22,	-1,	41,	37,	-1,	-1,	-1,	-1,	48,	9,	-1,	-1,	-1,	25,	-1,	-1,	-1,	-1,	-1,	46,	-1,	-1,	-1,	10,	-1,	-1,	8,	-1,	-1,	20,	-1,	47,	-1,	27|
13,	-1,	7,	45,	-1,	-1,	-1,	-1,	-1,	-1,	-1,	47,	31,	-1,	15,	-1,	-1,	-1,	40,	-1,	-1,	-1,	20,	-1,	29,	-1,	-1,	-1,	-1,	26,	21,	-1,	-1,	-1,	-1,	48,	-1,	-1,	-1,	-1,	35,	22,	38,	-1,	6,	-1,	-1,	37,	39|
39,	25,	-1,	19,	12,	44,	-1,	-1,	-1,	10,	-1,	35,	36,	-1,	-1,	-1,	-1,	-1,	-1,	-1,	-1,	-1,	-1,	-1,	-1,	-1,	2,	30,	-1,	28,	9,	46,	-1,	-1,	3,	-1,	-1,	38,	33,	-1,	48,	-1,	-1,	-1,	-1,	-1,	-1,	-1,	-1|
2,	48,	-1,	34,	-1,	-1,	-1,	-1,	-1,	-1,	-1,	-1,	24,	43,	-1,	25,	15,	-1,	36,	-1,	-1,	-1,	10,	-1,	22,	5,	29,	-1,	26,	-1,	-1,	-1,	-1,	33,	4,	-1,	-1,	-1,	9,	6,	32,	17,	3,	39,	13,	12,	49,	30,	18|
45,	-1,	26,	-1,	-1,	18,	27,	-1,	-1,	33,	-1,	-1,	12,	-1,	-1,	-1,	-1,	22,	17,	-1,	-1,	-1,	-1,	-1,	20,	-1,	7,	-1,	-1,	-1,	-1,	-1,	44,	-1,	13,	-1,	-1,	-1,	24,	-1,	-1,	11,	-1,	-1,	-1,	-1,	-1,	-1,	-1|
-1,	31,	-1,	15,	-1,	-1,	-1,	11,	-1,	25,	19,	-1,	-1,	-1,	30,	49,	-1,	-1,	27,	-1,	-1,	-1,	37,	17,	-1,	35,	-1,	44,	39,	-1,	-1,	-1,	-1,	-1,	-1,	-1,	-1,	-1,	43,	5,	-1,	13,	42,	-1,	14,	6,	-1,	26,	34|
-1,	-1,	-1,	49,	36,	29,	13,	-1,	26,	42,	34,	-1,	-1,	-1,	-1,	-1,	5,	-1,	11,	8,	47,	-1,	-1,	-1,	-1,	38,	24,	-1,	-1,	-1,	-1,	23,	25,	-1,	-1,	-1,	14,	30,	-1,	18,	-1,	27,	-1,	-1,	-1,	-1,	-1,	41,	-1|
-1,	-1,	28,	14,	-1,	-1,	-1,	-1,	-1,	-1,	-1,	-1,	16,	-1,	41,	46,	-1,	45,	12,	44,	-1,	-1,	31,	-1,	-1,	-1,	19,	15,	5,	-1,	7,	43,	-1,	-1,	-1,	34,	-1,	-1,	-1,	-1,	-1,	-1,	-1,	36,	-1,	21,	-1,	-1,	23|
32,	24,	9,	35,	-1,	42,	38,	31,	27,	39,	5,	28,	23,	-1,	10,	-1,	3,	-1,	-1,	-1,	34,	33,	-1,	41,	49,	-1,	-1,	-1,	37,	18,	30,	12,	-1,	-1,	-1,	29,	-1,	-1,	44,	-1,	22,	-1,	-1,	-1,	4,	15,	-1,	-1,	45|
-1,	-1,	25,	-1,	-1,	32,	-1,	45,	-1,	-1,	40,	-1,	47,	-1,	-1,	2,	-1,	-1,	43,	18,	39,	15,	-1,	-1,	27,	-1,	-1,	-1,	-1,	-1,	-1,	-1,	3,	-1,	-1,	4,	-1,	-1,	31,	10,	1,	41,	-1,	46,	-1,	-1,	48,	20,	-1|
4,	-1,	-1,	-1,	-1,	-1,	-1,	20,	-1,	-1,	-1,	-1,	-1,	44,	23,	-1,	36,	-1,	-1,	47,	-1,	-1,	-1,	43,	-1,	-1,	-1,	-1,	12,	-1,	-1,	8,	-1,	-1,	-1,	40,	-1,	17,	-1,	-1,	-1,	24,	-1,	25,	22,	9,	-1,	27,	-1|
35,	-1,	-1,	23,	-1,	-1,	-1,	-1,	-1,	7,	22,	-1,	46,	19,	-1,	4,	13,	44,	41,	42,	-1,	12,	-1,	38,	-1,	10,	-1,	-1,	-1,	43,	-1,	30,	-1,	1,	28,	-1,	-1,	-1,	-1,	-1,	-1,	5,	-1,	-1,	-1,	47,	-1,	39,	-1|
-1,	-1,	-1,	41,	43,	24,	-1,	-1,	35,	-1,	-1,	37,	-1,	4,	6,	-1,	-1,	38,	30,	-1,	-1,	-1,	-1,	-1,	39,	-1,	-1,	3,	-1,	2,	-1,	-1,	-1,	22,	10,	18,	-1,	-1,	13,	-1,	-1,	-1,	-1,	44,	-1,	45,	33,	42,	26|
-1,	-1,	-1,	-1,	1,	38,	40,	42,	-1,	-1,	9,	-1,	26,	41,	-1,	-1,	-1,	-1,	-1,	-1,	8,	-1,	-1,	-1,	25,	45,	-1,	-1,	-1,	46,	44,	-1,	47,	11,	17,	-1,	43,	-1,	-1,	-1,	23,	-1,	-1,	-1,	-1,	-1,	-1,	-1,	-1|
-1,	-1,	-1,	13,	2,	-1,	46,	-1,	-1,	18,	49,	-1,	-1,	-1,	-1,	-1,	-1,	40,	22,	7,	37,	47,	32,	-1,	-1,	4,	8,	-1,	38,	-1,	23,	-1,	34,	31,	36,	15,	44,	-1,	42,	30,	-1,	48,	-1,	-1,	-1,	-1,	5,	11,	-1|
-1,	-1,	-1,	-1,	19,	-1,	-1,	-1,	12,	38,	-1,	-1,	-1,	-1,	17,	10,	-1,	-1,	24,	-1,	-1,	-1,	-1,	-1,	41,	26,	-1,	35,	-1,	37,	-1,	-1,	40,	42,	45,	22,	33,	9,	49,	-1,	20,	3,	-1,	28,	-1,	-1,	-1,	-1,	-1|
-1,	-1,	-1,	28,	5,	21,	-1,	-1,	40,	-1,	13,	-1,	4,	-1,	3,	-1,	-1,	10,	16,	-1,	1,	46,	-1,	-1,	34,	15,	-1,	27,	-1,	-1,	-1,	-1,	14,	-1,	-1,	-1,	-1,	-1,	-1,	-1,	-1,	37,	-1,	-1,	-1,	29,	39,	-1,	-1|
-1,	-1,	30,	7,	15,	-1,	35,	-1,	19,	-1,	17,	-1,	18,	47,	-1,	34,	-1,	-1,	-1,	24,	22,	-1,	-1,	21,	-1,	-1,	38,	-1,	-1,	-1,	-1,	28,	10,	-1,	-1,	-1,	-1,	-1,	-1,	41,	-1,	32,	-1,	-1,	-1,	-1,	45,	-1,	-1|
-1,	26,	19,	-1,	13,	-1,	42,	-1,	-1,	-1,	25,	-1,	-1,	-1,	28,	-1,	-1,	-1,	45,	-1,	-1,	-1,	-1,	3,	30,	39,	-1,	-1,	7,	6,	-1,	-1,	-1,	-1,	-1,	2,	-1,	12,	-1,	-1,	40,	33,	-1,	-1,	1,	4,	-1,	-1,	35|
16,	-1,	41,	-1,	23,	-1,	45,	35,	6,	24,	7,	-1,	-1,	-1,	-1,	-1,	39,	-1,	-1,	19,	-1,	48,	17,	-1,	47,	-1,	-1,	-1,	11,	-1,	-1,	26,	-1,	-1,	-1,	49,	-1,	-1,	22,	-1,	-1,	-1,	-1,	13,	-1,	14,	-1,	15,	31|
22,	29,	-1,	32,	3,	20,	-1,	49,	14,	11,	21,	-1,	-1,	-1,	-1,	-1,	40,	-1,	-1,	-1,	27,	-1,	-1,	37,	-1,	7,	23,	-1,	41,	38,	31,	-1,	-1,	-1,	-1,	26,	-1,	18,	-1,	-1,	-1,	-1,	-1,	17,	28,	-1,	-1,	-1,	-1|
-1,	-1,	-1,	38,	-1,	-1,	25,	28,	-1,	-1,	15,	44,	-1,	3,	29,	12,	-1,	4,	-1,	-1,	-1,	22,	-1,	-1,	-1,	-1,	-1,	-1,	-1,	42,	-1,	-1,	8,	19,	2,	31,	-1,	23,	-1,	17,	13,	-1,	26,	6,	-1,	7,	10,	18,	-1|
-1,	33,	-1,	43,	-1,	-1,	-1,	-1,	22,	-1,	-1,	-1,	-1,	-1,	-1,	7,	37,	23,	-1,	26,	-1,	4,	-1,	25,	2,	31,	45,	-1,	-1,	32,	13,	-1,	-1,	27,	-1,	-1,	-1,	-1,	-1,	-1,	15,	29,	-1,	-1,	-1,	3,	21,	-1,	-1|
-1,	-1,	-1,	-1,	-1,	23,	-1,	-1,	48,	-1,	-1,	-1,	-1,	26,	39,	-1,	-1,	21,	38,	-1,	-1,	-1,	19,	11,	-1,	-1,	-1,	-1,	18,	12,	-1,	32,	4,	-1,	-1,	8,	17,	-1,	16,	-1,	-1,	-1,	-1,	-1,	15,	-1,	13,	-1,	-1|
-1,	-1,	43,	12,	-1,	2,	-1,	-1,	-1,	-1,	32,	34,	10,	46,	-1,	-1,	-1,	33,	25,	-1,	29,	-1,	-1,	-1,	-1,	-1,	-1,	-1,	-1,	11,	48,	-1,	26,	49,	-1,	-1,	-1,	5,	1,	35,	-1,	20,	-1,	-1,	39,	-1,	-1,	21,	44|
28,	-1,	-1,	-1,	9,	17,	-1,	12,	-1,	-1,	47,	-1,	1,	36,	-1,	-1,	14,	-1,	-1,	-1,	-1,	8,	43,	29,	-1,	-1,	-1,	39,	-1,	-1,	-1,	44,	-1,	-1,	25,	-1,	40,	-1,	32,	-1,	41,	38,	-1,	20,	42,	18,	37,	49,	-1|
-1,	13,	46,	47,	-1,	15,	-1,	-1,	-1,	6,	11,	-1,	-1,	30,	9,	42,	-1,	36,	-1,	1,	19,	-1,	-1,	-1,	5,	48,	26,	-1,	-1,	-1,	-1,	-1,	-1,	39,	-1,	12,	37,	-1,	-1,	-1,	-1,	-1,	-1,	-1,	40,	17,	-1,	-1,	-1|
-1,	-1,	38,	-1,	-1,	-1,	-1,	22,	-1,	-1,	-1,	19,	-1,	-1,	-1,	6,	12,	-1,	-1,	30,	17,	40,	21,	-1,	36,	-1,	-1,	-1,	-1,	27,	15,	10,	-1,	-1,	-1,	-1,	-1,	46,	26,	43,	-1,	25,	-1,	-1,	3,	-1,	31,	-1,	48|
26,	-1,	-1,	-1,	-1,	-1,	-1,	15,	-1,	-1,	-1,	-1,	42,	20,	-1,	44,	-1,	13,	-1,	-1,	32,	1,	-1,	-1,	-1,	30,	17,	-1,	-1,	-1,	-1,	-1,	-1,	-1,	37,	-1,	-1,	22,	-1,	9,	-1,	-1,	-1,	38,	-1,	-1,	25,	-1,	-1|
-1,	-1,	33,	-1,	-1,	-1,	30,	29,	-1,	-1,	45,	-1,	39,	-1,	43,	-1,	-1,	46,	-1,	-1,	-1,	-1,	-1,	-1,	18,	23,	35,	14,	-1,	-1,	-1,	-1,	-1,	36,	-1,	-1,	-1,	-1,	28,	-1,	-1,	-1,	-1,	5,	26,	41,	32,	-1,	-1|
-1,	-1,	-1,	39,	18,	-1,	32,	-1,	13,	-1,	-1,	-1,	37,	-1,	35,	-1,	-1,	-1,	4,	-1,	-1,	27,	6,	-1,	-1,	46,	-1,	-1,	-1,	25,	24,	31,	48,	-1,	29,	42,	-1,	-1,	-1,	-1,	16,	-1,	-1,	-1,	-1,	10,	-1,	-1,	-1|
8,	21,	-1,	24,	25,	-1,	-1,	14,	-1,	-1,	-1,	-1,	-1,	18,	-1,	-1,	11,	37,	28,	-1,	-1,	20,	23,	-1,	-1,	-1,	-1,	-1,	-1,	17,	2,	16,	-1,	9,	-1,	-1,	39,	-1,	12,	-1,	30,	-1,	-1,	-1,	27,	36,	40,	-1,	-1|
23,	-1,	1,	-1,	47,	-1,	-1,	39,	-1,	40,	-1,	-1,	-1,	27,	2,	-1,	-1,	49,	-1,	16,	-1,	-1,	5,	44,	11,	37,	-1,	-1,	6,	-1,	14,	-1,	-1,	-1,	22,	46,	48,	-1,	36,	-1,	17,	-1,	25,	-1,	-1,	-1,	-1,	9,	-1|
-1,	6,	-1,	17,	-1,	-1,	4,	-1,	-1,	-1,	44,	15,	25,	32,	45,	-1,	-1,	42,	23,	-1,	13,	38,	-1,	47,	-1,	-1,	-1,	16,	40,	35,	11,	37,	-1,	30,	-1,	-1,	-1,	26,	-1,	-1,	8,	-1,	31,	-1,	29,	-1,	46,	-1,	-1|
7,	-1,	-1,	9,	-1,	27,	14,	-1,	23,	-1,	-1,	6,	-1,	29,	-1,	40,	24,	-1,	-1,	-1,	41,	30,	22,	42,	-1,	18,	-1,	-1,	-1,	13,	-1,	3,	46,	-1,	-1,	-1,	45,	-1,	-1,	-1,	-1,	-1,	-1,	-1,	-1,	38,	-1,	-1,	20|
-1,	-1,	-1,	40,	-1,	-1,	-1,	-1,	20,	3,	-1,	-1,	-1,	22,	-1,	-1,	38,	12,	-1,	-1,	-1,	-1,	8,	-1,	-1,	-1,	-1,	-1,	-1,	45,	-1,	-1,	-1,	-1,	-1,	-1,	47,	-1,	-1,	-1,	29,	-1,	-1,	-1,	5,	42,	11,	-1,	-1|
46,	-1,	-1,	-1,	29,	-1,	-1,	5,	-1,	-1,	-1,	-1,	-1,	42,	19,	-1,	22,	-1,	-1,	-1,	-1,	-1,	-1,	-1,	7,	-1,	9,	-1,	-1,	-1,	18,	-1,	12,	-1,	8,	27,	11,	-1,	40,	38,	31,	35,	39,	-1,	-1,	23,	-1,	-1,	-1|];
