benchmarks_LEQ/INST_49x49/40/inst49x49_40_22.txt
7
1
-1	22	-1	-1	-1	30	12	25	-1	-1	20	-1	-1	-1	-1	-1	-1	-1	15	28	-1	-1	-1	-1	-1	34	-1	38	-1	-1	-1	-1	35	-1	-1	-1	-1	-1	-1	-1	43	-1	-1	-1	8	-1	-1	-1	42
-1	41	-1	-1	17	48	43	-1	2	-1	-1	45	21	-1	34	-1	-1	-1	-1	-1	-1	-1	28	-1	31	24	-1	22	36	-1	12	14	23	-1	-1	-1	26	47	19	-1	-1	1	46	-1	38	11	4	7	-1
-1	-1	-1	-1	-1	-1	1	-1	32	-1	-1	14	-1	-1	-1	37	25	39	6	12	43	3	-1	8	-1	19	-1	-1	46	-1	-1	-1	38	7	41	-1	22	-1	30	-1	11	-1	-1	-1	-1	-1	-1	47	-1
42	-1	-1	-1	21	-1	3	40	4	-1	46	11	-1	-1	-1	23	45	-1	-1	-1	-1	-1	-1	-1	-1	47	10	-1	-1	-1	-1	-1	1	18	43	5	-1	27	-1	-1	-1	-1	-1	35	24	33	-1	-1	-1
19	-1	-1	31	-1	35	39	-1	-1	-1	27	-1	-1	1	-1	3	32	-1	44	-1	5	-1	40	-1	4	-1	-1	-1	47	-1	-1	-1	-1	2	-1	17	-1	-1	6	48	7	18	13	-1	-1	25	34	-1	9
-1	-1	-1	-1	-1	40	-1	-1	-1	-1	-1	-1	-1	-1	-1	-1	19	27	-1	41	-1	17	2	7	33	-1	-1	11	8	29	-1	-1	-1	26	48	-1	15	-1	39	-1	-1	-1	-1	-1	-1	-1	-1	43	-1
5	11	-1	25	46	-1	-1	-1	-1	-1	42	48	-1	-1	47	-1	16	7	-1	-1	14	-1	-1	26	-1	20	-1	23	31	-1	-1	-1	17	-1	21	9	-1	-1	3	28	-1	36	18	-1	-1	37	-1	-1	49
-1	-1	8	-1	-1	-1	41	-1	42	-1	-1	20	-1	-1	-1	-1	-1	-1	32	21	-1	2	-1	-1	-1	-1	18	-1	-1	19	-1	-1	27	15	-1	25	-1	37	38	44	49	-1	7	34	9	-1	-1	24	-1
38	-1	-1	46	-1	-1	2	-1	11	48	-1	-1	-1	-1	-1	-1	-1	-1	-1	27	-1	7	-1	31	17	28	-1	-1	-1	16	10	41	-1	20	-1	3	-1	-1	-1	-1	-1	30	49	-1	-1	-1	35	5	-1
12	-1	-1	-1	-1	19	-1	-1	-1	-1	-1	41	-1	2	7	8	26	-1	39	6	-1	21	-1	1	-1	25	44	-1	-1	24	-1	34	9	-1	-1	13	46	31	23	-1	18	47	-1	-1	-1	48	-1	-1	-1
-1	32	-1	37	-1	-1	9	-1	-1	-1	-1	-1	7	-1	13	48	-1	-1	10	4	-1	-1	27	46	-1	-1	15	45	30	-1	-1	-1	18	-1	-1	-1	-1	-1	41	-1	-1	-1	-1	-1	-1	26	-1	-1	-1
-1	-1	-1	-1	-1	1	-1	-1	15	-1	-1	-1	49	25	-1	19	-1	29	42	38	28	34	-1	-1	-1	41	-1	37	-1	47	35	-1	-1	-1	32	-1	21	-1	7	45	-1	26	-1	-1	-1	-1	-1	40	-1
-1	15	-1	-1	39	6	-1	34	-1	44	-1	-1	-1	-1	24	-1	-1	-1	-1	49	31	-1	-1	-1	9	-1	-1	26	25	3	-1	-1	-1	-1	46	36	-1	-1	-1	-1	42	8	17	18	-1	-1	47	-1	-1
13	-1	-1	-1	-1	49	-1	27	-1	46	33	47	31	10	-1	-1	-1	30	-1	25	23	-1	-1	-1	-1	-1	-1	42	-1	-1	21	2	-1	12	-1	48	9	16	17	-1	35	22	-1	-1	-1	-1	14	37	39
-1	-1	-1	-1	-1	44	-1	-1	37	-1	4	35	36	-1	-1	-1	-1	-1	-1	-1	18	14	45	34	8	-1	2	-1	-1	28	-1	-1	-1	-1	-1	-1	31	-1	-1	-1	-1	15	20	-1	-1	27	24	17	-1
2	-1	-1	-1	8	-1	-1	47	-1	45	14	-1	-1	43	-1	-1	-1	28	36	-1	-1	23	-1	-1	-1	-1	29	-1	26	-1	16	42	-1	33	4	19	35	41	-1	-1	-1	17	-1	39	-1	12	49	-1	18
45	23	-1	6	41	18	27	-1	-1	33	-1	-1	-1	49	-1	-1	48	22	-1	-1	-1	-1	-1	-1	-1	9	-1	-1	19	-1	47	15	-1	14	-1	-1	3	-1	-1	-1	10	11	28	31	-1	-1	-1	38	37
1	-1	-1	-1	20	-1	-1	-1	-1	25	-1	-1	-1	-1	-1	49	-1	-1	-1	-1	-1	-1	-1	-1	-1	-1	-1	-1	-1	-1	-1	-1	-1	29	38	-1	-1	4	-1	-1	12	13	-1	9	-1	-1	2	-1	34
-1	43	16	-1	-1	29	-1	2	26	42	-1	-1	9	-1	-1	-1	5	-1	11	-1	-1	-1	-1	-1	-1	-1	-1	-1	10	-1	-1	-1	25	-1	-1	45	-1	30	-1	-1	-1	27	-1	-1	46	40	44	-1	-1
30	4	-1	-1	37	33	-1	3	-1	20	-1	-1	16	-1	41	46	9	45	12	-1	38	-1	-1	40	-1	42	19	15	-1	-1	-1	-1	24	-1	27	34	25	-1	-1	-1	2	49	-1	-1	10	-1	-1	35	-1
-1	-1	-1	35	7	-1	-1	31	-1	39	5	28	-1	-1	10	-1	-1	-1	19	-1	-1	33	-1	-1	-1	-1	47	25	37	18	-1	-1	2	-1	40	-1	-1	-1	-1	-1	22	-1	-1	11	4	15	16	-1	45
37	-1	25	22	-1	-1	-1	45	34	-1	-1	23	-1	28	-1	-1	-1	9	-1	-1	-1	-1	-1	-1	27	17	-1	-1	13	33	26	-1	-1	-1	-1	4	-1	35	-1	-1	-1	-1	-1	-1	-1	-1	-1	-1	-1
-1	-1	29	11	-1	-1	33	-1	39	-1	-1	-1	-1	-1	-1	-1	-1	-1	48	47	16	-1	30	-1	-1	14	31	-1	-1	-1	-1	8	15	21	18	-1	-1	-1	-1	-1	-1	-1	35	25	-1	-1	-1	-1	1
-1	9	-1	23	-1	14	15	8	-1	-1	22	-1	46	19	-1	-1	-1	-1	41	-1	-1	-1	29	38	24	10	-1	-1	48	43	32	-1	49	1	-1	6	36	-1	-1	25	-1	-1	-1	3	18	-1	-1	-1	-1
-1	-1	-1	-1	43	24	-1	17	35	-1	-1	37	-1	-1	6	28	34	-1	-1	-1	-1	-1	1	-1	-1	40	46	-1	-1	2	-1	-1	-1	-1	-1	18	-1	11	-1	-1	-1	-1	23	-1	16	-1	-1	-1	-1
6	-1	48	36	-1	-1	40	-1	-1	30	9	-1	26	-1	-1	-1	-1	-1	-1	-1	-1	37	-1	22	25	45	20	13	-1	46	-1	35	47	11	17	-1	-1	-1	-1	-1	23	-1	-1	-1	49	-1	7	-1	-1
-1	3	17	-1	-1	-1	-1	1	-1	-1	-1	-1	29	-1	27	-1	-1	-1	22	7	37	-1	-1	-1	21	-1	8	-1	-1	-1	23	39	34	-1	-1	-1	-1	45	-1	30	-1	48	12	14	-1	-1	-1	-1	24
-1	16	-1	18	-1	-1	-1	43	12	-1	36	27	-1	-1	-1	-1	-1	-1	-1	-1	15	44	-1	23	-1	-1	48	35	14	-1	4	-1	-1	42	-1	22	33	-1	-1	47	-1	3	-1	-1	30	-1	6	29	32
-1	-1	-1	-1	-1	-1	6	-1	40	-1	-1	-1	-1	-1	-1	38	-1	10	-1	17	-1	-1	-1	19	-1	-1	-1	27	-1	48	-1	-1	14	-1	-1	47	-1	44	8	-1	-1	-1	32	-1	-1	-1	-1	23	-1
11	1	-1	-1	15	31	-1	46	-1	36	17	-1	-1	-1	33	-1	6	-1	-1	-1	-1	42	44	21	26	16	38	29	-1	-1	-1	-1	-1	-1	9	43	-1	-1	-1	41	-1	-1	-1	-1	-1	-1	-1	-1	8
-1	26	19	10	13	37	42	-1	-1	8	25	-1	-1	-1	-1	-1	-1	48	-1	-1	-1	32	24	-1	30	39	-1	-1	7	-1	-1	-1	21	46	15	-1	20	12	14	27	40	33	-1	-1	1	-1	-1	22	-1
-1	-1	41	-1	-1	9	45	-1	-1	-1	-1	-1	-1	-1	44	-1	-1	-1	20	-1	2	48	-1	18	47	-1	-1	8	-1	30	33	-1	29	-1	-1	-1	10	-1	-1	-1	46	21	-1	13	37	-1	-1	-1	-1
-1	-1	-1	-1	-1	-1	8	49	-1	-1	-1	-1	-1	12	46	-1	40	35	-1	15	-1	-1	-1	-1	-1	7	-1	-1	41	-1	-1	-1	16	-1	-1	26	30	18	45	-1	6	42	-1	17	-1	-1	-1	-1	-1
48	-1	-1	38	-1	-1	25	28	43	-1	-1	44	-1	-1	-1	-1	-1	4	21	-1	-1	-1	-1	35	-1	-1	49	-1	24	42	45	-1	-1	-1	-1	31	-1	-1	-1	17	13	-1	26	-1	-1	-1	-1	-1	-1
-1	-1	-1	-1	-1	-1	49	10	22	-1	41	-1	-1	9	-1	7	37	-1	18	26	-1	-1	-1	25	2	31	-1	-1	-1	-1	-1	-1	-1	-1	-1	-1	-1	19	-1	-1	15	29	16	48	-1	3	21	-1	-1
-1	14	-1	1	6	-1	-1	44	-1	49	37	43	-1	26	-1	-1	-1	-1	-1	-1	10	-1	19	-1	-1	22	-1	7	18	-1	46	-1	4	-1	-1	8	-1	33	-1	24	-1	-1	9	27	-1	2	-1	-1	29
-1	42	-1	12	-1	-1	24	-1	-1	-1	32	-1	-1	46	-1	18	-1	33	-1	3	-1	-1	38	-1	-1	6	-1	47	-1	11	48	-1	26	-1	19	-1	-1	-1	1	-1	36	-1	14	-1	-1	-1	-1	21	44
-1	-1	3	-1	-1	-1	48	12	33	23	-1	-1	-1	-1	-1	16	-1	-1	-1	45	24	8	-1	-1	10	27	-1	-1	-1	31	-1	44	22	-1	25	-1	40	21	-1	-1	-1	-1	-1	-1	-1	-1	37	-1	46
-1	-1	46	-1	-1	15	44	-1	-1	-1	11	-1	35	-1	-1	-1	20	-1	-1	-1	-1	-1	34	-1	-1	-1	-1	-1	-1	-1	-1	-1	28	39	33	-1	-1	29	-1	31	-1	23	4	-1	-1	-1	22	10	-1
18	-1	-1	-1	32	-1	-1	22	-1	-1	-1	-1	-1	-1	37	-1	-1	8	35	-1	-1	-1	-1	-1	-1	-1	-1	41	-1	-1	15	-1	20	-1	-1	-1	49	46	-1	-1	-1	25	34	-1	-1	1	-1	28	48
-1	-1	11	21	-1	36	10	-1	-1	-1	-1	-1	-1	-1	-1	44	4	13	-1	-1	-1	-1	-1	-1	46	-1	-1	28	-1	-1	29	40	5	24	37	-1	-1	-1	-1	9	-1	-1	-1	38	7	-1	-1	6	-1
25	-1	-1	8	-1	-1	-1	-1	-1	-1	-1	-1	-1	-1	-1	11	-1	-1	31	-1	48	16	-1	20	18	-1	35	14	2	-1	3	-1	13	36	7	10	-1	-1	28	15	4	44	-1	-1	-1	41	32	-1	47
49	-1	-1	39	-1	-1	32	19	-1	47	-1	-1	-1	33	-1	-1	-1	-1	4	9	-1	27	6	14	-1	46	40	-1	1	-1	-1	-1	48	-1	29	42	-1	-1	34	22	16	-1	45	-1	44	10	26	-1	-1
-1	21	45	24	-1	5	-1	-1	-1	41	35	-1	38	-1	48	-1	-1	-1	-1	-1	-1	-1	23	-1	19	3	-1	-1	32	-1	-1	-1	-1	9	-1	-1	-1	15	-1	-1	30	6	-1	-1	27	-1	40	34	22
-1	-1	1	42	-1	13	-1	39	-1	-1	24	-1	-1	-1	-1	15	-1	-1	34	16	-1	-1	5	-1	-1	37	41	31	-1	-1	14	-1	33	38	-1	46	48	7	-1	-1	17	-1	-1	12	-1	30	-1	-1	-1
43	-1	-1	17	22	3	4	-1	-1	28	44	15	-1	32	-1	27	-1	42	-1	-1	-1	-1	36	-1	-1	2	1	-1	-1	-1	-1	-1	-1	30	39	-1	-1	26	21	20	-1	9	-1	19	-1	-1	-1	-1	33
-1	-1	-1	-1	10	-1	14	-1	23	-1	12	-1	11	29	25	-1	24	-1	-1	-1	41	30	-1	42	-1	18	39	-1	-1	-1	-1	3	-1	-1	-1	-1	45	-1	-1	-1	44	-1	-1	-1	-1	38	-1	8	20
-1	35	-1	-1	33	16	19	-1	20	-1	31	17	-1	22	18	-1	-1	-1	-1	39	-1	49	-1	-1	-1	-1	-1	24	-1	-1	27	21	-1	-1	23	-1	-1	25	4	-1	-1	43	-1	-1	-1	-1	-1	-1	2
46	-1	15	48	29	-1	-1	-1	16	34	-1	-1	2	42	-1	17	-1	-1	-1	-1	6	-1	-1	45	7	21	-1	-1	20	-1	-1	49	12	43	-1	-1	-1	-1	-1	-1	-1	35	39	-1	32	-1	-1	-1	-1
49 
21 48 38 13
27 5 47 2
29 15 21 17
30 37 12 12
6 43 37 38
35 28 4 3
17 27 40 6
44 1 18 31
45 48 48 8
15 10 16 23
35 49 34 39
6 10 40 17
17 35 37 37
40 13 48 40
14 15 48 29
10 18 32 1
18 24 17 19
45 47 29 2
18 11 27 45
13 45 41 14
36 18 18 7
15 3 4 32
6 40 1 47
5 35 33 46
32 18 25 21
28 26 18 48
26 29 39 1
5 31 13 34
44 20 37 21
5 9 38 36
32 49 40 47
21 1 48 26
19 44 29 8
23 28 14 40
10 10 46 30
12 7 40 25
6 3 13 19
33 30 25 18
20 38 1 46
11 42 22 11
21 24 25 4
44 33 10 47
14 16 17 22
26 31 40 26
1 29 35 27
23 39 5 28
22 13 19 21
8 32 41 39
39 28 2 19
